(set-info :smt-lib-version 2.6)
(set-logic QF_BV)
(set-info :source |
 Patrice Godefroid, SAGE (systematic dynamic test generation)
 For more information: http://research.microsoft.com/en-us/um/people/pg/public_psfiles/ndss2008.pdf
|)
(set-info :category "industrial")
(set-info :status sat)
(declare-fun T1_6536 () (_ BitVec 8))
(declare-fun T1_6532 () (_ BitVec 8))
(declare-fun T2_6140 () (_ BitVec 16))
(declare-fun T1_6131 () (_ BitVec 8))
(declare-fun T2_6534 () (_ BitVec 16))
(declare-fun T1_6555 () (_ BitVec 8))
(declare-fun T4_6132 () (_ BitVec 32))
(declare-fun T1_6577 () (_ BitVec 8))
(declare-fun T1_6601 () (_ BitVec 8))
(declare-fun T1_6534 () (_ BitVec 8))
(declare-fun T1_6535 () (_ BitVec 8))
(declare-fun T1_6140 () (_ BitVec 8))
(declare-fun T1_6141 () (_ BitVec 8))
(declare-fun T1_6132 () (_ BitVec 8))
(declare-fun T1_6133 () (_ BitVec 8))
(declare-fun T1_6134 () (_ BitVec 8))
(declare-fun T1_6135 () (_ BitVec 8))
(assert (let ((?v_2 ((_ zero_extend 24) T1_6536)) (?v_8 ((_ zero_extend 24) T1_6532)) (?v_4 ((_ zero_extend 16) T2_6140)) (?v_1 ((_ zero_extend 24) T1_6131))) (let ((?v_11 (bvsub ?v_1 (_ bv8 32)))) (let ((?v_16 (bvadd (bvadd ?v_11 (_ bv4265127 32)) ?v_4))) (let ((?v_15 (bvadd (bvadd ?v_16 (_ bv7 32)) ?v_8))) (let ((?v_0 (bvsub ?v_15 (_ bv4265093 32)))) (let ((?v_19 (bvadd ?v_0 (_ bv4265096 32)))) (let ((?v_20 (bvsub (bvadd ?v_19 ?v_2) (_ bv1 32))) (?v_21 (bvadd ?v_0 (_ bv4265114 32))) (?v_9 ((_ zero_extend 16) T2_6534))) (let ((?v_18 (bvadd ?v_9 (bvsub (_ bv4294967295 32) ?v_2))) (?v_17 ((_ zero_extend 24) T1_6555)) (?v_3 (bvadd ?v_1 (_ bv1 32)))) (let ((?v_7 (bvadd (bvadd ?v_3 (_ bv4265118 32)) ?v_4))) (let ((?v_10 (bvadd ?v_7 (_ bv6 32)))) (let ((?v_14 (bvadd (bvadd ?v_10 (bvadd ?v_8 (_ bv1 32))) (_ bv2 32))) (?v_13 (bvadd ?v_18 (bvsub (_ bv4294967295 32) ?v_17))) (?v_12 ((_ zero_extend 24) T1_6577))) (let ((?v_6 (bvadd ?v_13 (bvsub (_ bv4294967295 32) ?v_12))) (?v_5 ((_ zero_extend 24) T1_6601))) (and true (= T4_6132 (bvor (bvshl (bvor (bvshl (bvor (bvshl ((_ zero_extend 24) T1_6135) (_ bv8 32)) ((_ zero_extend 24) T1_6134)) (_ bv8 32)) ((_ zero_extend 24) T1_6133)) (_ bv8 32)) ((_ zero_extend 24) T1_6132))) (= T2_6140 (bvor (bvshl ((_ zero_extend 8) T1_6141) (_ bv8 16)) ((_ zero_extend 8) T1_6140))) (= T2_6534 (bvor (bvshl ((_ zero_extend 8) T1_6535) (_ bv8 16)) ((_ zero_extend 8) T1_6534))) (= ?v_21 ?v_20) (bvule (bvadd (bvadd ?v_3 (_ bv4265116 32)) (_ bv2 32)) (_ bv4265942 32)) (= (bvadd ?v_6 (bvsub (_ bv4294967295 32) ?v_5)) (_ bv0 32)) (bvule (bvsub ?v_7 (_ bv4265096 32)) (_ bv846 32)) (bvule (_ bv8 32) ?v_1) (not (= ?v_1 (_ bv1 32))) (bvule (bvadd ?v_5 (_ bv1 32)) ?v_6) (not (= ?v_6 (_ bv0 32))) (bvule (bvsub (bvadd ?v_14 ?v_9) (_ bv4265096 32)) (_ bv846 32)) (bvule (bvadd ?v_10 (_ bv1 32)) (_ bv4265942 32)) (bvule ?v_11 (_ bv0 32)) (bvule (bvadd ?v_12 (_ bv1 32)) ?v_13) (not (= ?v_13 (_ bv0 32))) (bvule ?v_14 (_ bv4265942 32)) (bvule (bvsub (bvadd (bvadd ?v_15 (_ bv2 32)) ?v_9) (_ bv4265096 32)) (_ bv846 32)) (bvule (bvsub ?v_16 (_ bv4265096 32)) (_ bv846 32)) (= T4_6132 ?v_4) (bvule (bvadd ?v_17 (_ bv1 32)) ?v_18) (not (= ?v_18 (_ bv0 32))) (not (= ?v_9 (_ bv0 32))) (bvule (bvadd ?v_2 (_ bv1 32)) ?v_9) (bvult ?v_8 (_ bv8 32)) (not (= ?v_8 (_ bv0 32))) (= ?v_8 (_ bv1 32)) (not (= ?v_19 (_ bv0 32))) (bvule ?v_20 ?v_21)))))))))))))))
(check-sat)
(exit)
